datasets/15l5i.nl
g3 3 1 0	# problem 15l5i
 290 101 1 0 80	# vars, constraints, objectives, ranges, eqns
 0 1	# nonlinear constraints, objectives
 0 0	# network constraints: nonlinear, linear
 0 120 0	# nonlinear vars in constraints, objectives, both
 0 0 0 1	# linear network variables; functions; arith, flags
 0 170 0 0 120	# discrete variables: binary, integer, nonlinear (b,c,o)
 1120 270	# nonzeros in Jacobian, gradients
 0 0	# max name lengths: constraints, variables
 0 0 0 0 0	# common exprs: b,c,o,c1,o1
b
2 0
2 0
2 0
2 0
2 0
2 0
2 0
2 0
2 0
2 0
2 0
2 0
2 0
2 0
2 0
2 0
2 0
2 0
2 0
2 0
2 0
2 0
2 0
2 0
2 0
2 0
2 0
2 0
2 0
2 0
2 0
2 0
2 0
2 0
2 0
2 0
2 0
2 0
2 0
2 0
2 0
2 0
2 0
2 0
2 0
2 0
2 0
2 0
2 0
2 0
2 0
2 0
2 0
2 0
2 0
2 0
2 0
2 0
2 0
2 0
2 0
2 0
2 0
2 0
2 0
2 0
2 0
2 0
2 0
2 0
2 0
2 0
2 0
2 0
2 0
2 0
2 0
2 0
2 0
2 0
2 0
2 0
2 0
2 0
2 0
2 0
2 0
2 0
2 0
2 0
2 0
2 0
2 0
2 0
2 0
2 0
2 0
2 0
2 0
2 0
2 0
2 0
2 0
2 0
2 0
2 0
2 0
2 0
2 0
2 0
2 0
2 0
2 0
2 0
2 0
2 0
2 0
2 0
2 0
2 0
0 0 70
0 0 40
0 0 130
0 0 20
0 0 100
0 0 70
0 0 40
0 0 130
0 0 20
0 0 100
0 0 70
0 0 40
0 0 130
0 0 20
0 0 100
0 0 70
0 0 40
0 0 130
0 0 20
0 0 100
0 0 70
0 0 40
0 0 130
0 0 20
0 0 100
0 0 70
0 0 40
0 0 130
0 0 20
0 0 100
0 0 40
0 0 80
0 0 70
0 0 70
0 0 100
0 0 40
0 0 80
0 0 70
0 0 70
0 0 100
0 0 40
0 0 80
0 0 70
0 0 70
0 0 100
0 0 40
0 0 80
0 0 70
0 0 70
0 0 100
0 0 40
0 0 80
0 0 70
0 0 70
0 0 100
0 0 40
0 0 80
0 0 70
0 0 70
0 0 100
0 0 40
0 0 80
0 0 80
0 0 50
0 0 110
0 0 40
0 0 80
0 0 80
0 0 50
0 0 110
0 0 40
0 0 80
0 0 80
0 0 50
0 0 110
0 0 40
0 0 80
0 0 80
0 0 50
0 0 110
0 0 40
0 0 80
0 0 80
0 0 50
0 0 110
0 0 40
0 0 80
0 0 80
0 0 50
0 0 110
0 0 50
0 0 100
0 0 100
0 0 70
0 0 80
0 0 50
0 0 100
0 0 100
0 0 70
0 0 80
0 0 50
0 0 100
0 0 100
0 0 70
0 0 80
0 0 50
0 0 100
0 0 100
0 0 70
0 0 80
0 0 50
0 0 100
0 0 100
0 0 70
0 0 80
0 0 50
0 0 100
0 0 100
0 0 70
0 0 80
0 0 200
0 0 100
0 0 20
0 0 190
0 0 10
0 0 200
0 0 100
0 0 20
0 0 190
0 0 10
0 0 200
0 0 100
0 0 20
0 0 190
0 0 10
0 0 200
0 0 100
0 0 20
0 0 190
0 0 10
0 0 200
0 0 100
0 0 20
0 0 190
0 0 10
0 0 200
0 0 100
0 0 20
0 0 190
0 0 10
0 0 100
0 0 100
0 0 100
0 0 60
0 0 100
0 0 100
0 0 100
0 0 100
0 0 80
0 0 90
0 0 100
0 0 100
0 0 100
0 0 100
0 0 100
0 0 100
0 0 100
0 0 100
0 0 100
0 0 100
r
4 70
4 40
4 130
4 20
4 100
4 40
4 80
4 70
4 70
4 100
4 40
4 80
4 80
4 50
4 110
4 50
4 100
4 100
4 70
4 80
4 200
4 100
4 20
4 190
4 10
4 0
4 0
4 0
4 0
4 0
4 0
4 0
4 0
4 0
4 0
4 0
4 0
4 0
4 0
4 0
4 0
4 0
4 0
4 0
4 0
4 0
4 0
4 0
4 0
4 0
4 0
4 0
4 0
4 0
4 0
4 -110
4 -120
4 -120
4 -60
4 -180
4 -140
4 -110
4 -150
4 -80
4 -90
4 -120
4 -130
4 -100
4 -120
4 -100
4 -130
4 -140
4 -130
4 -240
4 -130
4 100
4 100
4 100
4 100
4 100
1 396
1 428
1 429
1 410
1 431
1 654
1 590
1 570
1 570
1 770
1 360
1 360
1 360
1 400
1 520
1 396
1 428
1 429
1 410
1 431
1 654
C0
n0
C1
n0
C2
n0
C3
n0
C4
n0
C5
n0
C6
n0
C7
n0
C8
n0
C9
n0
C10
n0
C11
n0
C12
n0
C13
n0
C14
n0
C15
n0
C16
n0
C17
n0
C18
n0
C19
n0
C20
n0
C21
n0
C22
n0
C23
n0
C24
n0
C25
n0
C26
n0
C27
n0
C28
n0
C29
n0
C30
n0
C31
n0
C32
n0
C33
n0
C34
n0
C35
n0
C36
n0
C37
n0
C38
n0
C39
n0
C40
n0
C41
n0
C42
n0
C43
n0
C44
n0
C45
n0
C46
n0
C47
n0
C48
n0
C49
n0
C50
n0
C51
n0
C52
n0
C53
n0
C54
n0
C55
n0
C56
n0
C57
n0
C58
n0
C59
n0
C60
n0
C61
n0
C62
n0
C63
n0
C64
n0
C65
n0
C66
n0
C67
n0
C68
n0
C69
n0
C70
n0
C71
n0
C72
n0
C73
n0
C74
n0
C75
n0
C76
n0
C77
n0
C78
n0
C79
n0
C80
n0
C81
n0
C82
n0
C83
n0
C84
n0
C85
n0
C86
n0
C87
n0
C88
n0
C89
n0
C90
n0
C91
n0
C92
n0
C93
n0
C94
n0
C95
n0
C96
n0
C97
n0
C98
n0
C99
n0
C100
n0
O0 0
o54
20
o2
n10000
o5
o16
o3
o54
6
v0
v20
v40
v60
v80
v100
n-110
n2
o2
n10000
o5
o16
o3
o54
6
v1
v21
v41
v61
v81
v101
n-120
n2
o2
n10000
o5
o16
o3
o54
6
v2
v22
v42
v62
v82
v102
n-120
n2
o2
n10000
o5
o16
o3
o54
6
v3
v23
v43
v63
v83
v103
n-60
n2
o2
n10000
o5
o16
o3
o54
6
v4
v24
v44
v64
v84
v104
n-180
n2
o2
n10000
o5
o16
o3
o54
6
v5
v25
v45
v65
v85
v105
n-140
n2
o2
n10000
o5
o16
o3
o54
6
v6
v26
v46
v66
v86
v106
n-110
n2
o2
n10000
o5
o16
o3
o54
6
v7
v27
v47
v67
v87
v107
n-150
n2
o2
n10000
o5
o16
o3
o54
6
v8
v28
v48
v68
v88
v108
n-80
n2
o2
n10000
o5
o16
o3
o54
6
v9
v29
v49
v69
v89
v109
n-90
n2
o2
n10000
o5
o16
o3
o54
6
v10
v30
v50
v70
v90
v110
n-120
n2
o2
n10000
o5
o16
o3
o54
6
v11
v31
v51
v71
v91
v111
n-130
n2
o2
n10000
o5
o16
o3
o54
6
v12
v32
v52
v72
v92
v112
n-100
n2
o2
n10000
o5
o16
o3
o54
6
v13
v33
v53
v73
v93
v113
n-120
n2
o2
n10000
o5
o16
o3
o54
6
v14
v34
v54
v74
v94
v114
n-100
n2
o2
n10000
o5
o16
o3
o54
6
v15
v35
v55
v75
v95
v115
n-130
n2
o2
n10000
o5
o16
o3
o54
6
v16
v36
v56
v76
v96
v116
n-140
n2
o2
n10000
o5
o16
o3
o54
6
v17
v37
v57
v77
v97
v117
n-130
n2
o2
n10000
o5
o16
o3
o54
6
v18
v38
v58
v78
v98
v118
n-240
n2
o2
n10000
o5
o16
o3
o54
6
v19
v39
v59
v79
v99
v119
n-130
n2
k289
4
8
12
16
20
24
28
32
36
40
44
48
52
56
60
64
68
72
76
80
84
88
92
96
100
104
108
112
116
120
124
128
132
136
140
144
148
152
156
160
164
168
172
176
180
184
188
192
196
200
204
208
212
216
220
224
228
232
236
240
244
248
252
256
260
264
268
272
276
280
284
288
292
296
300
304
308
312
316
320
324
328
332
336
340
344
348
352
356
360
364
368
372
376
380
384
388
392
396
400
404
408
412
416
420
424
428
432
436
440
444
448
452
456
460
464
468
472
476
480
484
488
492
496
500
504
508
512
516
520
524
528
532
536
540
544
548
552
556
560
564
568
572
576
580
584
588
592
596
600
604
608
612
616
620
624
628
632
636
640
644
648
652
656
660
664
668
672
676
680
684
688
692
696
700
704
708
712
716
720
724
728
732
736
740
744
748
752
756
760
764
768
772
776
780
784
788
792
796
800
804
808
812
816
820
824
828
832
836
840
844
848
852
856
860
864
868
872
876
880
884
888
892
896
900
904
908
912
916
920
924
928
932
936
940
944
948
952
956
960
964
968
972
976
980
984
988
992
996
1000
1004
1008
1012
1016
1020
1024
1028
1032
1036
1040
1044
1048
1052
1056
1060
1064
1068
1072
1076
1080
1082
1084
1086
1088
1090
1092
1094
1096
1098
1100
1102
1104
1106
1108
1110
1112
1114
1116
1118
J0 6
120 1
125 1
130 1
135 1
140 1
145 1
J1 6
121 1
126 1
131 1
136 1
141 1
146 1
J2 6
122 1
127 1
132 1
137 1
142 1
147 1
J3 6
123 1
128 1
133 1
138 1
143 1
148 1
J4 6
124 1
129 1
134 1
139 1
144 1
149 1
J5 6
150 1
155 1
160 1
165 1
170 1
175 1
J6 6
151 1
156 1
161 1
166 1
171 1
176 1
J7 6
152 1
157 1
162 1
167 1
172 1
177 1
J8 6
153 1
158 1
163 1
168 1
173 1
178 1
J9 6
154 1
159 1
164 1
169 1
174 1
179 1
J10 6
180 1
185 1
190 1
195 1
200 1
205 1
J11 6
181 1
186 1
191 1
196 1
201 1
206 1
J12 6
182 1
187 1
192 1
197 1
202 1
207 1
J13 6
183 1
188 1
193 1
198 1
203 1
208 1
J14 6
184 1
189 1
194 1
199 1
204 1
209 1
J15 6
210 1
215 1
220 1
225 1
230 1
235 1
J16 6
211 1
216 1
221 1
226 1
231 1
236 1
J17 6
212 1
217 1
222 1
227 1
232 1
237 1
J18 6
213 1
218 1
223 1
228 1
233 1
238 1
J19 6
214 1
219 1
224 1
229 1
234 1
239 1
J20 6
240 1
245 1
250 1
255 1
260 1
265 1
J21 6
241 1
246 1
251 1
256 1
261 1
266 1
J22 6
242 1
247 1
252 1
257 1
262 1
267 1
J23 6
243 1
248 1
253 1
258 1
263 1
268 1
J24 6
244 1
249 1
254 1
259 1
264 1
269 1
J25 9
0 1
5 1
10 1
15 1
120 -1
150 -1
180 -1
210 -1
240 -1
J26 9
1 1
6 1
11 1
16 1
121 -1
151 -1
181 -1
211 -1
241 -1
J27 9
2 1
7 1
12 1
17 1
122 -1
152 -1
182 -1
212 -1
242 -1
J28 9
3 1
8 1
13 1
18 1
123 -1
153 -1
183 -1
213 -1
243 -1
J29 9
4 1
9 1
14 1
19 1
124 -1
154 -1
184 -1
214 -1
244 -1
J30 9
20 1
25 1
30 1
35 1
125 -1
155 -1
185 -1
215 -1
245 -1
J31 9
21 1
26 1
31 1
36 1
126 -1
156 -1
186 -1
216 -1
246 -1
J32 9
22 1
27 1
32 1
37 1
127 -1
157 -1
187 -1
217 -1
247 -1
J33 9
23 1
28 1
33 1
38 1
128 -1
158 -1
188 -1
218 -1
248 -1
J34 9
24 1
29 1
34 1
39 1
129 -1
159 -1
189 -1
219 -1
249 -1
J35 9
40 1
45 1
50 1
55 1
130 -1
160 -1
190 -1
220 -1
250 -1
J36 9
41 1
46 1
51 1
56 1
131 -1
161 -1
191 -1
221 -1
251 -1
J37 9
42 1
47 1
52 1
57 1
132 -1
162 -1
192 -1
222 -1
252 -1
J38 9
43 1
48 1
53 1
58 1
133 -1
163 -1
193 -1
223 -1
253 -1
J39 9
44 1
49 1
54 1
59 1
134 -1
164 -1
194 -1
224 -1
254 -1
J40 9
60 1
65 1
70 1
75 1
135 -1
165 -1
195 -1
225 -1
255 -1
J41 9
61 1
66 1
71 1
76 1
136 -1
166 -1
196 -1
226 -1
256 -1
J42 9
62 1
67 1
72 1
77 1
137 -1
167 -1
197 -1
227 -1
257 -1
J43 9
63 1
68 1
73 1
78 1
138 -1
168 -1
198 -1
228 -1
258 -1
J44 9
64 1
69 1
74 1
79 1
139 -1
169 -1
199 -1
229 -1
259 -1
J45 9
80 1
85 1
90 1
95 1
140 -1
170 -1
200 -1
230 -1
260 -1
J46 9
81 1
86 1
91 1
96 1
141 -1
171 -1
201 -1
231 -1
261 -1
J47 9
82 1
87 1
92 1
97 1
142 -1
172 -1
202 -1
232 -1
262 -1
J48 9
83 1
88 1
93 1
98 1
143 -1
173 -1
203 -1
233 -1
263 -1
J49 9
84 1
89 1
94 1
99 1
144 -1
174 -1
204 -1
234 -1
264 -1
J50 9
100 1
105 1
110 1
115 1
145 -1
175 -1
205 -1
235 -1
265 -1
J51 9
101 1
106 1
111 1
116 1
146 -1
176 -1
206 -1
236 -1
266 -1
J52 9
102 1
107 1
112 1
117 1
147 -1
177 -1
207 -1
237 -1
267 -1
J53 9
103 1
108 1
113 1
118 1
148 -1
178 -1
208 -1
238 -1
268 -1
J54 9
104 1
109 1
114 1
119 1
149 -1
179 -1
209 -1
239 -1
269 -1
J55 7
0 -1
20 -1
40 -1
60 -1
80 -1
100 -1
270 -1
J56 7
1 -1
21 -1
41 -1
61 -1
81 -1
101 -1
271 -1
J57 7
2 -1
22 -1
42 -1
62 -1
82 -1
102 -1
272 -1
J58 7
3 -1
23 -1
43 -1
63 -1
83 -1
103 -1
273 -1
J59 7
4 -1
24 -1
44 -1
64 -1
84 -1
104 -1
274 -1
J60 7
5 -1
25 -1
45 -1
65 -1
85 -1
105 -1
275 -1
J61 7
6 -1
26 -1
46 -1
66 -1
86 -1
106 -1
276 -1
J62 7
7 -1
27 -1
47 -1
67 -1
87 -1
107 -1
277 -1
J63 7
8 -1
28 -1
48 -1
68 -1
88 -1
108 -1
278 -1
J64 7
9 -1
29 -1
49 -1
69 -1
89 -1
109 -1
279 -1
J65 7
10 -1
30 -1
50 -1
70 -1
90 -1
110 -1
280 -1
J66 7
11 -1
31 -1
51 -1
71 -1
91 -1
111 -1
281 -1
J67 7
12 -1
32 -1
52 -1
72 -1
92 -1
112 -1
282 -1
J68 7
13 -1
33 -1
53 -1
73 -1
93 -1
113 -1
283 -1
J69 7
14 -1
34 -1
54 -1
74 -1
94 -1
114 -1
284 -1
J70 7
15 -1
35 -1
55 -1
75 -1
95 -1
115 -1
285 -1
J71 7
16 -1
36 -1
56 -1
76 -1
96 -1
116 -1
286 -1
J72 7
17 -1
37 -1
57 -1
77 -1
97 -1
117 -1
287 -1
J73 7
18 -1
38 -1
58 -1
78 -1
98 -1
118 -1
288 -1
J74 7
19 -1
39 -1
59 -1
79 -1
99 -1
119 -1
289 -1
J75 4
270 1
275 1
280 1
285 1
J76 4
271 1
276 1
281 1
286 1
J77 4
272 1
277 1
282 1
287 1
J78 4
273 1
278 1
283 1
288 1
J79 4
274 1
279 1
284 1
289 1
J80 25
120 1
121 1
122 1
123 1
124 1
150 1
151 1
152 1
153 1
154 1
180 1
181 1
182 1
183 1
184 1
210 1
211 1
212 1
213 1
214 1
240 1
241 1
242 1
243 1
244 1
J81 25
125 1
126 1
127 1
128 1
129 1
155 1
156 1
157 1
158 1
159 1
185 1
186 1
187 1
188 1
189 1
215 1
216 1
217 1
218 1
219 1
245 1
246 1
247 1
248 1
249 1
J82 25
130 1
131 1
132 1
133 1
134 1
160 1
161 1
162 1
163 1
164 1
190 1
191 1
192 1
193 1
194 1
220 1
221 1
222 1
223 1
224 1
250 1
251 1
252 1
253 1
254 1
J83 25
135 1
136 1
137 1
138 1
139 1
165 1
166 1
167 1
168 1
169 1
195 1
196 1
197 1
198 1
199 1
225 1
226 1
227 1
228 1
229 1
255 1
256 1
257 1
258 1
259 1
J84 25
140 1
141 1
142 1
143 1
144 1
170 1
171 1
172 1
173 1
174 1
200 1
201 1
202 1
203 1
204 1
230 1
231 1
232 1
233 1
234 1
260 1
261 1
262 1
263 1
264 1
J85 25
145 1
146 1
147 1
148 1
149 1
175 1
176 1
177 1
178 1
179 1
205 1
206 1
207 1
208 1
209 1
235 1
236 1
237 1
238 1
239 1
265 1
266 1
267 1
268 1
269 1
J86 30
0 1
1 1
2 1
3 1
4 1
20 1
21 1
22 1
23 1
24 1
40 1
41 1
42 1
43 1
44 1
60 1
61 1
62 1
63 1
64 1
80 1
81 1
82 1
83 1
84 1
100 1
101 1
102 1
103 1
104 1
J87 30
5 1
6 1
7 1
8 1
9 1
25 1
26 1
27 1
28 1
29 1
45 1
46 1
47 1
48 1
49 1
65 1
66 1
67 1
68 1
69 1
85 1
86 1
87 1
88 1
89 1
105 1
106 1
107 1
108 1
109 1
J88 30
10 1
11 1
12 1
13 1
14 1
30 1
31 1
32 1
33 1
34 1
50 1
51 1
52 1
53 1
54 1
70 1
71 1
72 1
73 1
74 1
90 1
91 1
92 1
93 1
94 1
110 1
111 1
112 1
113 1
114 1
J89 30
15 1
16 1
17 1
18 1
19 1
35 1
36 1
37 1
38 1
39 1
55 1
56 1
57 1
58 1
59 1
75 1
76 1
77 1
78 1
79 1
95 1
96 1
97 1
98 1
99 1
115 1
116 1
117 1
118 1
119 1
J90 30
120 1
121 1
122 1
123 1
124 1
125 1
126 1
127 1
128 1
129 1
130 1
131 1
132 1
133 1
134 1
135 1
136 1
137 1
138 1
139 1
140 1
141 1
142 1
143 1
144 1
145 1
146 1
147 1
148 1
149 1
J91 30
150 1
151 1
152 1
153 1
154 1
155 1
156 1
157 1
158 1
159 1
160 1
161 1
162 1
163 1
164 1
165 1
166 1
167 1
168 1
169 1
170 1
171 1
172 1
173 1
174 1
175 1
176 1
177 1
178 1
179 1
J92 30
180 1
181 1
182 1
183 1
184 1
185 1
186 1
187 1
188 1
189 1
190 1
191 1
192 1
193 1
194 1
195 1
196 1
197 1
198 1
199 1
200 1
201 1
202 1
203 1
204 1
205 1
206 1
207 1
208 1
209 1
J93 30
210 1
211 1
212 1
213 1
214 1
215 1
216 1
217 1
218 1
219 1
220 1
221 1
222 1
223 1
224 1
225 1
226 1
227 1
228 1
229 1
230 1
231 1
232 1
233 1
234 1
235 1
236 1
237 1
238 1
239 1
J94 30
240 1
241 1
242 1
243 1
244 1
245 1
246 1
247 1
248 1
249 1
250 1
251 1
252 1
253 1
254 1
255 1
256 1
257 1
258 1
259 1
260 1
261 1
262 1
263 1
264 1
265 1
266 1
267 1
268 1
269 1
J95 20
0 1
1 1
2 1
3 1
4 1
5 1
6 1
7 1
8 1
9 1
10 1
11 1
12 1
13 1
14 1
15 1
16 1
17 1
18 1
19 1
J96 20
20 1
21 1
22 1
23 1
24 1
25 1
26 1
27 1
28 1
29 1
30 1
31 1
32 1
33 1
34 1
35 1
36 1
37 1
38 1
39 1
J97 20
40 1
41 1
42 1
43 1
44 1
45 1
46 1
47 1
48 1
49 1
50 1
51 1
52 1
53 1
54 1
55 1
56 1
57 1
58 1
59 1
J98 20
60 1
61 1
62 1
63 1
64 1
65 1
66 1
67 1
68 1
69 1
70 1
71 1
72 1
73 1
74 1
75 1
76 1
77 1
78 1
79 1
J99 20
80 1
81 1
82 1
83 1
84 1
85 1
86 1
87 1
88 1
89 1
90 1
91 1
92 1
93 1
94 1
95 1
96 1
97 1
98 1
99 1
J100 20
100 1
101 1
102 1
103 1
104 1
105 1
106 1
107 1
108 1
109 1
110 1
111 1
112 1
113 1
114 1
115 1
116 1
117 1
118 1
119 1
G0 270
0 933
1 933
2 933
3 933
4 933
5 899
6 899
7 899
8 899
9 899
10 826
11 826
12 826
13 826
14 826
15 953
16 953
17 953
18 953
19 953
20 150
21 150
22 150
23 150
24 150
25 764
26 764
27 764
28 764
29 764
30 797
31 797
32 797
33 797
34 797
35 674
36 674
37 674
38 674
39 674
40 289
41 289
42 289
43 289
44 289
45 224
46 224
47 224
48 224
49 224
50 249
51 249
52 249
53 249
54 249
55 413
56 413
57 413
58 413
59 413
60 669
61 669
62 669
63 669
64 669
65 441
66 441
67 441
68 441
69 441
70 404
71 404
72 404
73 404
74 404
75 791
76 791
77 791
78 791
79 791
80 781
81 781
82 781
83 781
84 781
85 937
86 937
87 937
88 937
89 937
90 882
91 882
92 882
93 882
94 882
95 153
96 153
97 153
98 153
99 153
100 543
101 543
102 543
103 543
104 543
105 712
106 712
107 712
108 712
109 712
110 363
111 363
112 363
113 363
114 363
115 152
116 152
117 152
118 152
119 152
120 203
121 203
122 203
123 203
124 203
125 492
126 492
127 492
128 492
129 492
130 910
131 910
132 910
133 910
134 910
135 345
136 345
137 345
138 345
139 345
140 275
141 275
142 275
143 275
144 275
145 138
146 138
147 138
148 138
149 138
150 576
151 576
152 576
153 576
154 576
155 781
156 781
157 781
158 781
159 781
160 858
161 858
162 858
163 858
164 858
165 637
166 637
167 637
168 637
169 637
170 966
171 966
172 966
173 966
174 966
175 917
176 917
177 917
178 917
179 917
180 507
181 507
182 507
183 507
184 507
185 624
186 624
187 624
188 624
189 624
190 927
191 927
192 927
193 927
194 927
195 605
196 605
197 605
198 605
199 605
200 924
201 924
202 924
203 924
204 924
205 135
206 135
207 135
208 135
209 135
210 784
211 784
212 784
213 784
214 784
215 119
216 119
217 119
218 119
219 119
220 420
221 420
222 420
223 420
224 420
225 875
226 875
227 875
228 875
229 875
230 611
231 611
232 611
233 611
234 611
235 499
236 499
237 499
238 499
239 499
240 753
241 753
242 753
243 753
244 753
245 982
246 982
247 982
248 982
249 982
250 570
251 570
252 570
253 570
254 570
255 242
256 242
257 242
258 242
259 242
260 191
261 191
262 191
263 191
264 191
265 453
266 453
267 453
268 453
269 453
