datasets/15l5i.sol
 
couenne: Optimization interrupted by user.

Options
3
3
1
0
101
0
290
290
0
0
0
0
0
0
0
0
0
0
0
0
0
0
0
0
0
0
0
0
50
100
100
45.99999999978628
132.0000000002138
0
0
0
0
0
0
0
0
0
0
0
0
0
0
0
0
0
0
0
0
0
10.00000000000007
3.999999999999986
24
39
0
0
0
0
0
0
0
0
0
0
0
0
0
0
0
111
44
93.99999999978643
3
15
41
32.999999999999915
0
69.00000000021372
0
0
0
0
0
0
0
0
0
0
0
0
0
0
0
0
0
0
0
0
0
130
93.00000000000007
16.00000000021361
187.99999999999997
3.9999999997862155
0
0
0
0
0
0
0
0
0
0
68
73
72.00000000021359
18
83.99999999978621
0
46.999999999999986
113.99999999978637
51.99999999999999
126.00000000021379
0
0
0
0
0
0
0
0
0
0
0
0
0
0
0
0
0
7.999999999786429
0
0
42
0
16.000000000213614
0
0
27.999999999999996
40
105.99999999999996
20
99.99999999999999
0
0
0
0
0
0
0
0
0
52.00000000021378
0
10.00000000000007
4
0
39
40
69.99999999999994
66
70
8.999999999786219
0
0
0
0
0
0
0
0
0
0
0
0
0
0
0
0
0
0
0
0
0
0
0
0
0
0
0
0
0
0
0
0
0
0
0
40
80
80
50
110
0
0
0
0
0
50
100
100
45.99999999978628
80
0
0
0
24.000000000213713
0
0
0
0
0
0
0
0
0
0
0
0
0
0
0
0
0
0
0
0
0
0
0
0
0
0
0
0
0
0
0
112
6.999999999999909
20
1.9999999999999851
6.000000000213782
88
93.00000000000009
0
188
3.9999999997862163
0
0
0
0
0
60
20
20
14.000000000213715
47.9999999997862
29
55.999999999999915
52.00000000021359
53
36
11
24.000000000000085
27.99999999978641
32.99999999978628
16.0000000002138
0
0
0
0
0
objno 0 422
